100 10
370 384
273 828
463 476
613 315
467 593
270 162
601 476
169 520
249 773
315 672
309 469
402 517
260 529
445 586
580 445
382 354
246 346
155 212
93 431
348 243
446 643
483 695
581 439
611 460
237 268
435 465
474 213
487 678
471 761
677 724
246 229
357 651
737 269
467 834
120 637
190 706
476 77
561 765
165 703
572 657
152 293
218 249
280 655
574 530
237 592
403 373
523 643
334 335
321 356
203 565
270 596
461 469
325 264
485 520
401 704
352 313
803 415
478 809
665 560
198 450
407 470
488 179
487 126
767 693
431 393
350 651
469 325
199 714
449 431
271 390
461 667
100 525
275 464
774 472
436 582
303 264
326 753
471 722
411 445
352 274
450 647
487 687
323 49
524 489
489 731
161 192
861 454
629 582
431 496
531 478
518 289
300 316
551 677
503 683
330 457
521 478
364 640
353 292
502 703
448 713
